! =============================================================================
! Tidal tails of a cluster near the Galactic centre
!   N = 50 000, King W0 = 5, Z = 0.02, 2500 primordial binaries, Kroupa IMF
!   0.08-100 Msun, point-mass galaxy at 2 kpc (circular orbit), TCRIT = 500 NB
!   (about 1 Gyr). Science case, expected phenomena, cost and references:
!   documentation, Input Files, "Engine inputs: the science cases".
! =============================================================================

&INNBODY6
KSTART=1,TCOMP=1.0E8,TCRTP0=172800,isernb=40,iserreg=40,iserks=0 /

&ININPUT
N=50000,NFIX=1,NCRIT=10,NRAND=66503,NNBOPT=80,NRUN=1,NCOMM=10,
ETAI=0.01,ETAR=0.01,RS0=0.12,DTADJ=1.0,DELTAT=5.0,TCRIT=500.0,QE=1.0E-02,RBAR=2.00,ZMBAR=0.6,
KZ(1:10)= 1 1 1 0 1 0 3 2 3 2
KZ(11:20)=0 1 0 2 2 0 0 0 3 6
KZ(21:30)=1 1 2 0 2 2 3 2 0 2
KZ(31:40)=1 0 2 2 1 0 1 1 2 1
KZ(41:50)=0 0 0 0 0 4 3 0 3 0 ,
DTMIN=2.5E-6,RMIN=8.E-5,ETAU=0.1,ECLOSE=1.0,GMIN=1.0E-06,GMAX=0.01,SMAX=1.0,
Level='C' /

&INSSE /

&INBSE /

&INCOLL /

&INDATA
ALPHAS=2.35,BODY1=100.0,BODYN=0.08,NBIN0=2500,NHI0=0,ZMET=0.02,EPOCH0=0,DTPLOT=5.0 /

&INSETUP SEMI=,ECC=,APO=,N2=,SCALE=,ZM1=,ZM2,ZMH,RCUT= /

&INSCALE
Q=0.5,VXROT=0.0,VZROT=0.0,RTIDE=0.0 /

&INXTRNL0
GMG=1.78E11,RG0=2.0,DISK=,A=,B=,VCIRC=,RCIRC=,GMB=,AR=,GAM=,RG=,,,VG=,,,MP=,AP2=,MPDOT=,TDELAY= /

&INBINPOP
SEMI0=0.001,ECC0=-1.0,RATIO=1.0,RANGE=5.0,NSKIP=3,IDORM=0 /

&INHIPOP
SEMI0=,ECC0=,RATIO=,RANGE= /

